152 5
10 10 10 10 10 

0 0 0 0 0 0 1 2 
0 0 0 0 0 0 5 3 4 10 11 12 
9 0 0 1 0 0 2 9 5 
2 0 0 4 0 0 1 6 
5 0 0 5 0 0 1 8 
10 0 0 2 0 0 1 7 
6 0 0 3 0 0 1 13 
8 0 0 2 0 0 1 13 
4 0 0 1 0 0 1 13 
7 0 0 2 0 0 1 13 
10 0 0 3 0 0 1 13 
10 0 0 2 0 0 1 13 
0 0 0 0 0 0 1 14 
0 0 0 0 0 0 5 15 16 18 23 24 
8 0 0 0 1 0 3 22 21 17 
1 0 0 0 4 0 2 20 19 
6 0 0 0 2 0 1 19 
7 0 0 0 5 0 1 20 
4 0 0 0 2 0 1 25 
1 0 0 0 2 0 1 25 
9 0 0 0 3 0 1 25 
5 0 0 0 1 0 1 25 
9 0 0 0 2 0 1 25 
9 0 0 0 3 0 1 25 
0 0 0 0 0 0 1 26 
0 0 0 0 0 0 5 27 29 30 35 36 
5 0 0 0 1 0 3 32 31 28 
10 0 0 0 3 0 2 34 33 
4 0 0 0 1 0 1 32 
2 0 0 0 4 0 1 31 
5 0 0 0 4 0 1 37 
7 0 0 0 3 0 1 37 
9 0 0 0 3 0 1 37 
7 0 0 0 1 0 1 37 
1 0 0 0 2 0 1 37 
5 0 0 0 3 0 1 37 
0 0 0 0 0 0 4 38 60 82 104 
0 0 0 0 0 0 7 39 40 41 42 43 57 58 
9 0 0 1 0 1 5 56 54 52 46 44 
7 0 0 1 0 3 6 54 52 51 50 48 46 
5 0 0 3 0 1 5 54 52 51 50 47 
9 0 0 2 0 2 4 55 52 50 46 
8 0 0 2 0 3 4 52 51 50 46 
9 0 0 2 0 1 2 50 45 
6 0 0 3 0 3 3 53 51 47 
2 0 0 2 0 3 1 47 
8 0 0 3 0 3 1 49 
7 0 0 1 0 2 1 53 
8 0 0 2 0 4 1 59 
1 0 0 4 0 3 2 59 117 
4 0 0 2 0 3 1 59 
6 0 0 3 0 2 1 59 
3 0 0 1 0 3 1 59 
4 0 0 8 0 2 1 59 
10 0 0 3 0 3 1 59 
9 0 0 4 0 2 1 59 
5 0 0 1 0 2 1 59 
9 0 0 2 0 4 1 59 
0 0 0 0 0 0 1 152 
0 0 0 0 0 0 9 61 62 63 64 65 66 69 71 72 
4 1 0 0 1 0 4 80 79 77 68 
3 2 0 0 4 0 4 79 78 74 70 
2 1 0 0 2 0 3 79 70 67 
2 7 0 0 2 0 3 79 70 67 
1 1 0 0 4 0 3 79 74 70 
8 1 0 0 2 0 4 78 76 74 73 
8 3 0 0 2 0 4 78 77 76 73 
3 4 0 0 4 0 2 78 70 
5 2 0 0 1 0 3 78 76 74 
3 4 0 0 2 0 2 76 73 
10 1 0 0 2 0 2 76 75 
4 2 0 0 3 0 2 73 108 
2 5 0 0 2 0 1 75 
8 1 0 0 3 0 1 77 
5 5 0 0 3 0 1 81 
2 2 0 0 6 0 1 81 
1 1 0 0 1 0 1 81 
9 2 0 0 1 0 1 81 
8 2 0 0 2 0 1 81 
8 3 0 0 3 0 1 81 
0 0 0 0 0 0 1 152 
0 0 0 0 0 0 8 83 84 85 87 88 89 91 96 
1 0 0 0 1 1 3 101 93 86 
3 0 0 0 4 2 5 101 100 95 93 90 
7 0 0 0 2 2 6 102 101 100 99 98 93 
3 0 0 0 3 3 4 102 100 92 90 
9 0 0 0 1 1 5 102 100 99 98 94 
5 0 0 0 4 4 4 100 99 98 93 
7 0 0 0 3 3 3 101 94 90 
3 0 0 0 2 4 3 99 98 97 
9 0 0 0 4 2 3 100 98 97 
1 0 0 0 1 4 2 98 94 
10 0 0 0 4 2 1 94 
6 0 0 0 1 4 1 97 
2 0 0 0 2 1 1 97 
9 0 0 0 3 4 1 97 
10 0 0 0 1 2 2 103 147 
9 0 0 0 2 2 1 103 
7 0 0 0 4 2 1 103 
6 0 0 0 4 1 1 103 
2 0 0 0 2 4 1 103 
9 0 0 0 2 2 1 103 
0 0 0 0 0 0 1 152 
0 0 0 0 0 0 6 105 106 107 108 111 112 
6 0 1 0 0 0 2 114 109 
2 0 4 0 0 0 2 110 109 
8 0 1 0 0 0 2 114 113 
7 0 2 0 0 0 1 109 
5 0 3 0 0 0 1 113 
3 0 2 0 0 0 2 113 149 
5 0 3 0 0 0 1 113 
5 0 3 0 0 0 1 113 
4 0 2 0 0 0 1 115 
4 0 4 0 0 0 1 115 
0 0 0 0 0 0 3 116 128 140 
0 0 0 0 0 0 5 117 118 120 125 126 
2 0 0 0 0 1 3 124 121 119 
1 0 0 0 0 2 3 123 122 121 
4 0 0 0 0 2 1 122 
10 0 0 0 0 4 1 121 
5 0 0 0 0 2 1 127 
3 0 0 0 0 5 1 127 
9 0 0 0 0 3 1 127 
10 0 0 0 0 1 2 127 147 
5 0 0 0 0 2 1 127 
10 0 0 0 0 3 1 127 
0 0 0 0 0 0 1 152 
0 0 0 0 0 0 5 129 130 131 137 138 
7 0 0 0 0 1 4 136 135 133 132 
8 0 0 0 0 2 3 136 135 133 
9 0 0 0 0 2 1 132 
8 0 0 0 0 3 1 134 
7 0 0 0 0 2 1 134 
7 0 0 0 0 4 2 139 146 
10 0 0 0 0 4 1 139 
10 0 0 0 0 4 1 139 
5 0 0 0 0 1 1 139 
4 0 0 0 0 2 1 139 
0 0 0 0 0 0 1 152 
0 0 0 0 0 0 5 141 142 145 146 150 
8 0 0 0 0 1 2 149 143 
9 0 0 0 0 4 2 148 144 
10 0 0 0 0 4 1 148 
5 0 0 0 0 3 1 147 
3 0 0 0 0 1 1 147 
2 0 0 0 0 3 1 147 
9 0 0 0 0 2 1 151 
9 0 0 0 0 3 1 151 
10 0 0 0 0 2 1 151 
4 0 0 0 0 2 1 151 
0 0 0 0 0 0 1 152 
0 0 0 0 0 0 0 
